centroides = 0;
nNurses = 181;
hours = 68;
demand = [35 37 18 40 8 7 18 14 33 45 18 41 14 33 14 5 18 29 8 33 5 9 27 44 37 10 3 0 18 11 16 11 3 28 33 16 35 30 41 1 5 21 20 29 40 40 36 5 9 32 36 8 41 2 36 9 44 26 33 1 37 42 43 11 3 18 1 26];
minHours = 12;
maxHours = 23;
maxConsec = 3;
maxPresence = 37;